words_hard_train/4774.qaiger
aag 43 15 0 1 28
2
4
8
10
16
18
22
28
30
34
36
44
46
62
64
87
6 3 5
12 8 10
14 7 13
20 17 19
24 21 22
26 14 24
32 29 31
38 35 37
40 33 39
42 16 18
48 44 46
50 43 49
52 40 50
54 26 52
56 9 11
58 28 30
60 57 59
66 62 64
68 60 67
70 34 36
72 2 4
74 71 73
76 45 47
78 63 65
80 77 79
82 74 80
84 68 82
86 54 84
i0 2 y1[0]
i1 1 x2[0]
i2 2 y1[6]
i3 1 x2[6]
i4 2 y1[2]
i5 1 x2[2]
i6 1 x2[1]
i7 2 y1[4]
i8 1 x2[4]
i9 2 y1[7]
i10 1 x2[7]
i11 2 y1[5]
i12 1 x2[5]
i13 2 y1[3]
i14 1 x2[3]
o0 bool[0]
c
simplified
  !=
    1 x2
    or
      invert
        2 y1
      add
        1
        1
