words_hard_train/4774.qaiger.qdimacs
p cnf 43 85
a 32 2 5 9 11 15 18 23 0
e 1 3 4 6 7 8 10 12 13 14 16 17 19 20 21 22 24 25 26 27 28 29 30 31 33 34 35 36 37 38 39 40 41 42 43 0
1 2 3 0
-1 -3 0
-2 -3 0
-4 -5 6 0
4 -6 0
5 -6 0
3 6 7 0
-3 -7 0
-6 -7 0
8 9 10 0
-8 -10 0
-9 -10 0
10 -11 12 0
-10 -12 0
11 -12 0
-7 -12 13 0
7 -13 0
12 -13 0
14 15 16 0
-14 -16 0
-15 -16 0
17 18 19 0
-17 -19 0
-18 -19 0
16 19 20 0
-16 -20 0
-19 -20 0
-8 -9 21 0
8 -21 0
9 -21 0
-22 -23 24 0
22 -24 0
23 -24 0
21 24 25 0
-21 -25 0
-24 -25 0
-20 -25 26 0
20 -26 0
25 -26 0
-13 -26 27 0
13 -27 0
26 -27 0
4 5 28 0
-4 -28 0
-5 -28 0
-14 -15 29 0
14 -29 0
15 -29 0
28 29 30 0
-28 -30 0
-29 -30 0
-31 -32 33 0
31 -33 0
32 -33 0
-30 33 34 0
30 -34 0
-33 -34 0
-17 -18 35 0
17 -35 0
18 -35 0
-1 -2 36 0
1 -36 0
2 -36 0
35 36 37 0
-35 -37 0
-36 -37 0
22 23 38 0
-22 -38 0
-23 -38 0
31 32 39 0
-31 -39 0
-32 -39 0
38 39 40 0
-38 -40 0
-39 -40 0
-37 -40 41 0
37 -41 0
40 -41 0
-34 -41 42 0
34 -42 0
41 -42 0
-27 -42 43 0
27 -43 0
42 -43 0
-43 0
